mixintcount/benchmarks/random_v2l/3_3_79.smt2
(set-logic QF_LIA)
(set-info :ran/ran2.smt2)
(set-info :smt-lib-version 2.0)
(declare-fun x1 () Int)
(declare-fun x2 () Int)
(declare-fun x3 () Int)
(assert (<= (+ (* (- 9) x1) (* (- 10) x2) (* 0 x3) ) 15))
(assert (<= (+ (* 2 x1) (* (- 6) x2) (* (- 9) x3) ) 10))
(assert (<= (+ (* 9 x1) (* (- 6) x2) (* (- 2) x3) ) (- 56)))
(assert (<= (+ (* 10 x1) (* (- 10) x2) (* 7 x3) ) 0))
(assert (<= (+ (* 9 x1) (* (- 3) x2) (* 1 x3) ) 40))
(assert (<= (+ (* (- 3) x1) (* (- 3) x2) (* 1 x3) ) 62))
(assert (<= (+ (* 1 x1) (* 0 x2) (* 0 x3) ) 79))
(assert (<= (+ (* (- 1) x1) (* 0 x2) (* 0 x3) ) 79))
(assert (<= (+ (* 0 x1) (* 1 x2) (* 0 x3) ) 79))
(assert (<= (+ (* 0 x1) (* (- 1) x2) (* 0 x3) ) 79))
(assert (<= (+ (* 0 x1) (* 0 x2) (* 1 x3) ) 79))
(assert (<= (+ (* 0 x1) (* 0 x2) (* (- 1) x3) ) 79))
