mixintcount/benchmarks/random_v2l/3_3_79.in
12 5
#	x1	x2	x3;		0 = Real; 1 = Integer
	1	1	1
1	-9	-10	0	15
1	2	-6	-9	10
1	9	-6	-2	-56
1	10	-10	7	0
1	9	-3	1	40
1	-3	-3	1	62
1	1	0	0	79
1	-1	0	0	79
1	0	1	0	79
1	0	-1	0	79
1	0	0	1	79
1	0	0	-1	79
